100
32
2
13
5
16
4
15
10
9
19
14
3
7
1
10
12
9
8
26
10
7
24
9
15
12
13
1
10
2
11
2
2
17
3
1
2
1
6
1
4
1
21
1
1
2
1
3
17
2
5
5
19
17
19
1
2
1
5
2
4
1
1
1
2
2
2
1
4
5
2
2
4
17
1
7
2
2
18
1
3
3
19
3
1
4
1
2
2
5
5
4
2
1
1
1
2
16
6
4
1
4